p cnf 245 1158
-1 -33 0
-2 -33 0
1 2 33 0
1 2 -34 0
-1 -2 -34 0
-1 2 34 0
1 -2 34 0
33 -35 0
-3 -35 0
3 -33 35 0
3 -33 -36 0
-3 33 -36 0
3 33 36 0
-3 -33 36 0
35 -37 0
-4 -37 0
4 -35 37 0
4 -35 -38 0
-4 35 -38 0
4 35 38 0
-4 -35 38 0
37 -39 0
-5 -39 0
5 -37 39 0
5 -37 -40 0
-5 37 -40 0
5 37 40 0
-5 -37 40 0
39 -41 0
-6 -41 0
6 -39 41 0
6 -39 -42 0
-6 39 -42 0
6 39 42 0
-6 -39 42 0
41 -43 0
-7 -43 0
7 -41 43 0
7 -41 -44 0
-7 41 -44 0
7 41 44 0
-7 -41 44 0
43 -45 0
-8 -45 0
8 -43 45 0
8 -43 -46 0
-8 43 -46 0
8 43 46 0
-8 -43 46 0
3 -47 0
1 -47 0
-1 -3 47 0
-1 -3 -48 0
1 3 -48 0
1 -3 48 0
-1 3 48 0
-2 -4 49 0
-4 -47 49 0
-2 -47 49 0
2 4 -49 0
4 47 -49 0
2 47 -49 0
4 -49 -50 0
2 -49 -50 0
47 -49 -50 0
-4 49 50 0
-2 49 50 0
-47 49 50 0
-2 -4 -47 50 0
2 4 47 -50 0
-3 -5 51 0
-5 -49 51 0
-3 -49 51 0
3 5 -51 0
5 49 -51 0
3 49 -51 0
5 -51 -52 0
3 -51 -52 0
49 -51 -52 0
-5 51 52 0
-3 51 52 0
-49 51 52 0
-3 -5 -49 52 0
3 5 49 -52 0
-4 -6 53 0
-6 -51 53 0
-4 -51 53 0
4 6 -53 0
6 51 -53 0
4 51 -53 0
6 -53 -54 0
4 -53 -54 0
51 -53 -54 0
-6 53 54 0
-4 53 54 0
-51 53 54 0
-4 -6 -51 54 0
4 6 51 -54 0
-5 -7 55 0
-7 -53 55 0
-5 -53 55 0
5 7 -55 0
7 53 -55 0
5 53 -55 0
7 -55 -56 0
5 -55 -56 0
53 -55 -56 0
-7 55 56 0
-5 55 56 0
-53 55 56 0
-5 -7 -53 56 0
5 7 53 -56 0
-6 -8 57 0
-8 -55 57 0
-6 -55 57 0
6 8 -57 0
8 55 -57 0
6 55 -57 0
8 -57 -58 0
6 -57 -58 0
55 -57 -58 0
-8 57 58 0
-6 57 58 0
-55 57 58 0
-6 -8 -55 58 0
6 8 55 -58 0
7 -59 0
57 -59 0
-7 -57 59 0
-7 -57 -60 0
7 57 -60 0
-7 57 60 0
7 -57 60 0
8 -61 0
59 -61 0
-8 -59 61 0
-8 -59 -62 0
8 59 -62 0
-8 59 62 0
8 -59 62 0
50 -63 0
1 -63 0
-1 -50 63 0
-1 -50 -64 0
1 50 -64 0
1 -50 64 0
-1 50 64 0
-2 -52 65 0
-52 -63 65 0
-2 -63 65 0
2 52 -65 0
52 63 -65 0
2 63 -65 0
52 -65 -66 0
2 -65 -66 0
63 -65 -66 0
-52 65 66 0
-2 65 66 0
-63 65 66 0
-2 -52 -63 66 0
2 52 63 -66 0
-3 -54 67 0
-54 -65 67 0
-3 -65 67 0
3 54 -67 0
54 65 -67 0
3 65 -67 0
54 -67 -68 0
3 -67 -68 0
65 -67 -68 0
-54 67 68 0
-3 67 68 0
-65 67 68 0
-3 -54 -65 68 0
3 54 65 -68 0
-4 -56 69 0
-56 -67 69 0
-4 -67 69 0
4 56 -69 0
56 67 -69 0
4 67 -69 0
56 -69 -70 0
4 -69 -70 0
67 -69 -70 0
-56 69 70 0
-4 69 70 0
-67 69 70 0
-4 -56 -67 70 0
4 56 67 -70 0
-5 -58 71 0
-58 -69 71 0
-5 -69 71 0
5 58 -71 0
58 69 -71 0
5 69 -71 0
58 -71 -72 0
5 -71 -72 0
69 -71 -72 0
-58 71 72 0
-5 71 72 0
-69 71 72 0
-5 -58 -69 72 0
5 58 69 -72 0
-6 -60 73 0
-60 -71 73 0
-6 -71 73 0
6 60 -73 0
60 71 -73 0
6 71 -73 0
60 -73 -74 0
6 -73 -74 0
71 -73 -74 0
-60 73 74 0
-6 73 74 0
-71 73 74 0
-6 -60 -71 74 0
6 60 71 -74 0
-7 -62 75 0
-62 -73 75 0
-7 -73 75 0
7 62 -75 0
62 73 -75 0
7 73 -75 0
62 -75 -76 0
7 -75 -76 0
73 -75 -76 0
-62 75 76 0
-7 75 76 0
-73 75 76 0
-7 -62 -73 76 0
7 62 73 -76 0
-8 -61 77 0
-61 -75 77 0
-8 -75 77 0
8 61 -77 0
61 75 -77 0
8 75 -77 0
61 -77 -78 0
8 -77 -78 0
75 -77 -78 0
-61 77 78 0
-8 77 78 0
-75 77 78 0
-8 -61 -75 78 0
8 61 75 -78 0
-1 -79 0
-2 -79 0
1 2 79 0
1 2 -80 0
-1 -2 -80 0
-1 2 80 0
1 -2 80 0
79 -81 0
-48 -81 0
48 -79 81 0
48 -79 -82 0
-48 79 -82 0
48 79 82 0
-48 -79 82 0
81 -83 0
-64 -83 0
64 -81 83 0
64 -81 -84 0
-64 81 -84 0
64 81 84 0
-64 -81 84 0
83 -85 0
-66 -85 0
66 -83 85 0
66 -83 -86 0
-66 83 -86 0
66 83 86 0
-66 -83 86 0
85 -87 0
-68 -87 0
68 -85 87 0
68 -85 -88 0
-68 85 -88 0
68 85 88 0
-68 -85 88 0
87 -89 0
-70 -89 0
70 -87 89 0
70 -87 -90 0
-70 87 -90 0
70 87 90 0
-70 -87 90 0
89 -91 0
-72 -91 0
72 -89 91 0
72 -89 -92 0
-72 89 -92 0
72 89 92 0
-72 -89 92 0
91 -93 0
-74 -93 0
74 -91 93 0
74 -91 -94 0
-74 91 -94 0
74 91 94 0
-74 -91 94 0
93 -95 0
-76 -95 0
76 -93 95 0
76 -93 -96 0
-76 93 -96 0
76 93 96 0
-76 -93 96 0
95 -97 0
-78 -97 0
78 -95 97 0
78 -95 -98 0
-78 95 -98 0
78 95 98 0
-78 -95 98 0
97 -99 0
-77 -99 0
77 -97 99 0
77 -97 -100 0
-77 97 -100 0
77 97 100 0
-77 -97 100 0
-9 -101 0
-10 -101 0
9 10 101 0
9 10 -102 0
-9 -10 -102 0
-9 10 102 0
9 -10 102 0
101 -103 0
-11 -103 0
11 -101 103 0
11 -101 -104 0
-11 101 -104 0
11 101 104 0
-11 -101 104 0
103 -105 0
-12 -105 0
12 -103 105 0
12 -103 -106 0
-12 103 -106 0
12 103 106 0
-12 -103 106 0
105 -107 0
-13 -107 0
13 -105 107 0
13 -105 -108 0
-13 105 -108 0
13 105 108 0
-13 -105 108 0
107 -109 0
-14 -109 0
14 -107 109 0
14 -107 -110 0
-14 107 -110 0
14 107 110 0
-14 -107 110 0
109 -111 0
-15 -111 0
15 -109 111 0
15 -109 -112 0
-15 109 -112 0
15 109 112 0
-15 -109 112 0
111 -113 0
-16 -113 0
16 -111 113 0
16 -111 -114 0
-16 111 -114 0
16 111 114 0
-16 -111 114 0
10 -115 0
9 -115 0
-9 -10 115 0
-9 -10 -116 0
9 10 -116 0
9 -10 116 0
-9 10 116 0
-10 -11 117 0
-11 -115 117 0
-10 -115 117 0
10 11 -117 0
11 115 -117 0
10 115 -117 0
11 -117 -118 0
10 -117 -118 0
115 -117 -118 0
-11 117 118 0
-10 117 118 0
-115 117 118 0
-10 -11 -115 118 0
10 11 115 -118 0
-11 -12 119 0
-12 -117 119 0
-11 -117 119 0
11 12 -119 0
12 117 -119 0
11 117 -119 0
12 -119 -120 0
11 -119 -120 0
117 -119 -120 0
-12 119 120 0
-11 119 120 0
-117 119 120 0
-11 -12 -117 120 0
11 12 117 -120 0
-12 -13 121 0
-13 -119 121 0
-12 -119 121 0
12 13 -121 0
13 119 -121 0
12 119 -121 0
13 -121 -122 0
12 -121 -122 0
119 -121 -122 0
-13 121 122 0
-12 121 122 0
-119 121 122 0
-12 -13 -119 122 0
12 13 119 -122 0
-13 -14 123 0
-14 -121 123 0
-13 -121 123 0
13 14 -123 0
14 121 -123 0
13 121 -123 0
14 -123 -124 0
13 -123 -124 0
121 -123 -124 0
-14 123 124 0
-13 123 124 0
-121 123 124 0
-13 -14 -121 124 0
13 14 121 -124 0
-14 -15 125 0
-15 -123 125 0
-14 -123 125 0
14 15 -125 0
15 123 -125 0
14 123 -125 0
15 -125 -126 0
14 -125 -126 0
123 -125 -126 0
-15 125 126 0
-14 125 126 0
-123 125 126 0
-14 -15 -123 126 0
14 15 123 -126 0
-15 -16 127 0
-16 -125 127 0
-15 -125 127 0
15 16 -127 0
16 125 -127 0
15 125 -127 0
16 -127 -128 0
15 -127 -128 0
125 -127 -128 0
-16 127 128 0
-15 127 128 0
-125 127 128 0
-15 -16 -125 128 0
15 16 125 -128 0
16 -129 0
127 -129 0
-16 -127 129 0
-16 -127 -130 0
16 127 -130 0
-16 127 130 0
16 -127 130 0
118 -131 0
9 -131 0
-9 -118 131 0
-9 -118 -132 0
9 118 -132 0
9 -118 132 0
-9 118 132 0
-10 -120 133 0
-120 -131 133 0
-10 -131 133 0
10 120 -133 0
120 131 -133 0
10 131 -133 0
120 -133 -134 0
10 -133 -134 0
131 -133 -134 0
-120 133 134 0
-10 133 134 0
-131 133 134 0
-10 -120 -131 134 0
10 120 131 -134 0
-11 -122 135 0
-122 -133 135 0
-11 -133 135 0
11 122 -135 0
122 133 -135 0
11 133 -135 0
122 -135 -136 0
11 -135 -136 0
133 -135 -136 0
-122 135 136 0
-11 135 136 0
-133 135 136 0
-11 -122 -133 136 0
11 122 133 -136 0
-12 -124 137 0
-124 -135 137 0
-12 -135 137 0
12 124 -137 0
124 135 -137 0
12 135 -137 0
124 -137 -138 0
12 -137 -138 0
135 -137 -138 0
-124 137 138 0
-12 137 138 0
-135 137 138 0
-12 -124 -135 138 0
12 124 135 -138 0
-13 -126 139 0
-126 -137 139 0
-13 -137 139 0
13 126 -139 0
126 137 -139 0
13 137 -139 0
126 -139 -140 0
13 -139 -140 0
137 -139 -140 0
-126 139 140 0
-13 139 140 0
-137 139 140 0
-13 -126 -137 140 0
13 126 137 -140 0
-14 -128 141 0
-128 -139 141 0
-14 -139 141 0
14 128 -141 0
128 139 -141 0
14 139 -141 0
128 -141 -142 0
14 -141 -142 0
139 -141 -142 0
-128 141 142 0
-14 141 142 0
-139 141 142 0
-14 -128 -139 142 0
14 128 139 -142 0
-15 -130 143 0
-130 -141 143 0
-15 -141 143 0
15 130 -143 0
130 141 -143 0
15 141 -143 0
130 -143 -144 0
15 -143 -144 0
141 -143 -144 0
-130 143 144 0
-15 143 144 0
-141 143 144 0
-15 -130 -141 144 0
15 130 141 -144 0
-16 -129 145 0
-129 -143 145 0
-16 -143 145 0
16 129 -145 0
129 143 -145 0
16 143 -145 0
129 -145 -146 0
16 -145 -146 0
143 -145 -146 0
-129 145 146 0
-16 145 146 0
-143 145 146 0
-16 -129 -143 146 0
16 129 143 -146 0
134 -147 0
9 -147 0
-9 -134 147 0
-9 -134 -148 0
9 134 -148 0
9 -134 148 0
-9 134 148 0
-10 -136 149 0
-136 -147 149 0
-10 -147 149 0
10 136 -149 0
136 147 -149 0
10 147 -149 0
136 -149 -150 0
10 -149 -150 0
147 -149 -150 0
-136 149 150 0
-10 149 150 0
-147 149 150 0
-10 -136 -147 150 0
10 136 147 -150 0
-11 -138 151 0
-138 -149 151 0
-11 -149 151 0
11 138 -151 0
138 149 -151 0
11 149 -151 0
138 -151 -152 0
11 -151 -152 0
149 -151 -152 0
-138 151 152 0
-11 151 152 0
-149 151 152 0
-11 -138 -149 152 0
11 138 149 -152 0
-12 -140 153 0
-140 -151 153 0
-12 -151 153 0
12 140 -153 0
140 151 -153 0
12 151 -153 0
140 -153 -154 0
12 -153 -154 0
151 -153 -154 0
-140 153 154 0
-12 153 154 0
-151 153 154 0
-12 -140 -151 154 0
12 140 151 -154 0
-13 -142 155 0
-142 -153 155 0
-13 -153 155 0
13 142 -155 0
142 153 -155 0
13 153 -155 0
142 -155 -156 0
13 -155 -156 0
153 -155 -156 0
-142 155 156 0
-13 155 156 0
-153 155 156 0
-13 -142 -153 156 0
13 142 153 -156 0
-14 -144 157 0
-144 -155 157 0
-14 -155 157 0
14 144 -157 0
144 155 -157 0
14 155 -157 0
144 -157 -158 0
14 -157 -158 0
155 -157 -158 0
-144 157 158 0
-14 157 158 0
-155 157 158 0
-14 -144 -155 158 0
14 144 155 -158 0
-15 -146 159 0
-146 -157 159 0
-15 -157 159 0
15 146 -159 0
146 157 -159 0
15 157 -159 0
146 -159 -160 0
15 -159 -160 0
157 -159 -160 0
-146 159 160 0
-15 159 160 0
-157 159 160 0
-15 -146 -157 160 0
15 146 157 -160 0
-16 -145 161 0
-145 -159 161 0
-16 -159 161 0
16 145 -161 0
145 159 -161 0
16 159 -161 0
145 -161 -162 0
16 -161 -162 0
159 -161 -162 0
-145 161 162 0
-16 161 162 0
-159 161 162 0
-16 -145 -159 162 0
16 145 159 -162 0
150 -163 0
9 -163 0
-9 -150 163 0
-9 -150 -164 0
9 150 -164 0
9 -150 164 0
-9 150 164 0
-10 -152 165 0
-152 -163 165 0
-10 -163 165 0
10 152 -165 0
152 163 -165 0
10 163 -165 0
152 -165 -166 0
10 -165 -166 0
163 -165 -166 0
-152 165 166 0
-10 165 166 0
-163 165 166 0
-10 -152 -163 166 0
10 152 163 -166 0
-11 -154 167 0
-154 -165 167 0
-11 -165 167 0
11 154 -167 0
154 165 -167 0
11 165 -167 0
154 -167 -168 0
11 -167 -168 0
165 -167 -168 0
-154 167 168 0
-11 167 168 0
-165 167 168 0
-11 -154 -165 168 0
11 154 165 -168 0
-12 -156 169 0
-156 -167 169 0
-12 -167 169 0
12 156 -169 0
156 167 -169 0
12 167 -169 0
156 -169 -170 0
12 -169 -170 0
167 -169 -170 0
-156 169 170 0
-12 169 170 0
-167 169 170 0
-12 -156 -167 170 0
12 156 167 -170 0
-13 -158 171 0
-158 -169 171 0
-13 -169 171 0
13 158 -171 0
158 169 -171 0
13 169 -171 0
158 -171 -172 0
13 -171 -172 0
169 -171 -172 0
-158 171 172 0
-13 171 172 0
-169 171 172 0
-13 -158 -169 172 0
13 158 169 -172 0
-14 -160 173 0
-160 -171 173 0
-14 -171 173 0
14 160 -173 0
160 171 -173 0
14 171 -173 0
160 -173 -174 0
14 -173 -174 0
171 -173 -174 0
-160 173 174 0
-14 173 174 0
-171 173 174 0
-14 -160 -171 174 0
14 160 171 -174 0
-15 -162 175 0
-162 -173 175 0
-15 -173 175 0
15 162 -175 0
162 173 -175 0
15 173 -175 0
162 -175 -176 0
15 -175 -176 0
173 -175 -176 0
-162 175 176 0
-15 175 176 0
-173 175 176 0
-15 -162 -173 176 0
15 162 173 -176 0
-16 -161 177 0
-161 -175 177 0
-16 -175 177 0
16 161 -177 0
161 175 -177 0
16 175 -177 0
161 -177 -178 0
16 -177 -178 0
175 -177 -178 0
-161 177 178 0
-16 177 178 0
-175 177 178 0
-16 -161 -175 178 0
16 161 175 -178 0
166 -179 0
9 -179 0
-9 -166 179 0
-9 -166 -180 0
9 166 -180 0
9 -166 180 0
-9 166 180 0
-10 -168 181 0
-168 -179 181 0
-10 -179 181 0
10 168 -181 0
168 179 -181 0
10 179 -181 0
168 -181 -182 0
10 -181 -182 0
179 -181 -182 0
-168 181 182 0
-10 181 182 0
-179 181 182 0
-10 -168 -179 182 0
10 168 179 -182 0
-11 -170 183 0
-170 -181 183 0
-11 -181 183 0
11 170 -183 0
170 181 -183 0
11 181 -183 0
170 -183 -184 0
11 -183 -184 0
181 -183 -184 0
-170 183 184 0
-11 183 184 0
-181 183 184 0
-11 -170 -181 184 0
11 170 181 -184 0
-12 -172 185 0
-172 -183 185 0
-12 -183 185 0
12 172 -185 0
172 183 -185 0
12 183 -185 0
172 -185 -186 0
12 -185 -186 0
183 -185 -186 0
-172 185 186 0
-12 185 186 0
-183 185 186 0
-12 -172 -183 186 0
12 172 183 -186 0
-13 -174 187 0
-174 -185 187 0
-13 -185 187 0
13 174 -187 0
174 185 -187 0
13 185 -187 0
174 -187 -188 0
13 -187 -188 0
185 -187 -188 0
-174 187 188 0
-13 187 188 0
-185 187 188 0
-13 -174 -185 188 0
13 174 185 -188 0
-14 -176 189 0
-176 -187 189 0
-14 -187 189 0
14 176 -189 0
176 187 -189 0
14 187 -189 0
176 -189 -190 0
14 -189 -190 0
187 -189 -190 0
-176 189 190 0
-14 189 190 0
-187 189 190 0
-14 -176 -187 190 0
14 176 187 -190 0
-15 -178 191 0
-178 -189 191 0
-15 -189 191 0
15 178 -191 0
178 189 -191 0
15 189 -191 0
178 -191 -192 0
15 -191 -192 0
189 -191 -192 0
-178 191 192 0
-15 191 192 0
-189 191 192 0
-15 -178 -189 192 0
15 178 189 -192 0
-16 -177 193 0
-177 -191 193 0
-16 -191 193 0
16 177 -193 0
177 191 -193 0
16 191 -193 0
177 -193 -194 0
16 -193 -194 0
191 -193 -194 0
-177 193 194 0
-16 193 194 0
-191 193 194 0
-16 -177 -191 194 0
16 177 191 -194 0
-9 -195 0
-116 -195 0
9 116 195 0
9 116 -196 0
-9 -116 -196 0
-9 116 196 0
9 -116 196 0
195 -197 0
-132 -197 0
132 -195 197 0
132 -195 -198 0
-132 195 -198 0
132 195 198 0
-132 -195 198 0
197 -199 0
-148 -199 0
148 -197 199 0
148 -197 -200 0
-148 197 -200 0
148 197 200 0
-148 -197 200 0
199 -201 0
-164 -201 0
164 -199 201 0
164 -199 -202 0
-164 199 -202 0
164 199 202 0
-164 -199 202 0
201 -203 0
-180 -203 0
180 -201 203 0
180 -201 -204 0
-180 201 -204 0
180 201 204 0
-180 -201 204 0
203 -205 0
-182 -205 0
182 -203 205 0
182 -203 -206 0
-182 203 -206 0
182 203 206 0
-182 -203 206 0
205 -207 0
-184 -207 0
184 -205 207 0
184 -205 -208 0
-184 205 -208 0
184 205 208 0
-184 -205 208 0
207 -209 0
-186 -209 0
186 -207 209 0
186 -207 -210 0
-186 207 -210 0
186 207 210 0
-186 -207 210 0
209 -211 0
-188 -211 0
188 -209 211 0
188 -209 -212 0
-188 209 -212 0
188 209 212 0
-188 -209 212 0
211 -213 0
-190 -213 0
190 -211 213 0
190 -211 -214 0
-190 211 -214 0
190 211 214 0
-190 -211 214 0
213 -215 0
-192 -215 0
192 -213 215 0
192 -213 -216 0
-192 213 -216 0
192 213 216 0
-192 -213 216 0
215 -217 0
-194 -217 0
194 -215 217 0
194 -215 -218 0
-194 215 -218 0
194 215 218 0
-194 -215 218 0
217 -219 0
-193 -219 0
193 -217 219 0
193 -217 -220 0
-193 217 -220 0
193 217 220 0
-193 -217 220 0
1 -221 0
132 -221 0
-1 -132 221 0
-1 -132 -222 0
1 132 -222 0
-1 132 222 0
1 -132 222 0
-2 -148 223 0
-2 -221 223 0
-148 -221 223 0
2 148 -223 0
2 221 -223 0
148 221 -223 0
2 -223 -224 0
148 -223 -224 0
221 -223 -224 0
-2 223 224 0
-148 223 224 0
-221 223 224 0
-2 -148 -221 224 0
2 148 221 -224 0
-48 -164 225 0
-48 -223 225 0
-164 -223 225 0
48 164 -225 0
48 223 -225 0
164 223 -225 0
48 -225 -226 0
164 -225 -226 0
223 -225 -226 0
-48 225 226 0
-164 225 226 0
-223 225 226 0
-48 -164 -223 226 0
48 164 223 -226 0
-64 -180 227 0
-64 -225 227 0
-180 -225 227 0
64 180 -227 0
64 225 -227 0
180 225 -227 0
64 -227 -228 0
180 -227 -228 0
225 -227 -228 0
-64 227 228 0
-180 227 228 0
-225 227 228 0
-64 -180 -225 228 0
64 180 225 -228 0
-66 -182 229 0
-66 -227 229 0
-182 -227 229 0
66 182 -229 0
66 227 -229 0
182 227 -229 0
66 -229 -230 0
182 -229 -230 0
227 -229 -230 0
-66 229 230 0
-182 229 230 0
-227 229 230 0
-66 -182 -227 230 0
66 182 227 -230 0
-68 -184 231 0
-68 -229 231 0
-184 -229 231 0
68 184 -231 0
68 229 -231 0
184 229 -231 0
68 -231 -232 0
184 -231 -232 0
229 -231 -232 0
-68 231 232 0
-184 231 232 0
-229 231 232 0
-68 -184 -229 232 0
68 184 229 -232 0
-70 -186 233 0
-70 -231 233 0
-186 -231 233 0
70 186 -233 0
70 231 -233 0
186 231 -233 0
70 -233 -234 0
186 -233 -234 0
231 -233 -234 0
-70 233 234 0
-186 233 234 0
-231 233 234 0
-70 -186 -231 234 0
70 186 231 -234 0
-72 -188 235 0
-72 -233 235 0
-188 -233 235 0
72 188 -235 0
72 233 -235 0
188 233 -235 0
72 -235 -236 0
188 -235 -236 0
233 -235 -236 0
-72 235 236 0
-188 235 236 0
-233 235 236 0
-72 -188 -233 236 0
72 188 233 -236 0
-74 -190 237 0
-74 -235 237 0
-190 -235 237 0
74 190 -237 0
74 235 -237 0
190 235 -237 0
74 -237 -238 0
190 -237 -238 0
235 -237 -238 0
-74 237 238 0
-190 237 238 0
-235 237 238 0
-74 -190 -235 238 0
74 190 235 -238 0
-76 -192 239 0
-76 -237 239 0
-192 -237 239 0
76 192 -239 0
76 237 -239 0
192 237 -239 0
76 -239 -240 0
192 -239 -240 0
237 -239 -240 0
-76 239 240 0
-192 239 240 0
-237 239 240 0
-76 -192 -237 240 0
76 192 237 -240 0
-78 -194 241 0
-78 -239 241 0
-194 -239 241 0
78 194 -241 0
78 239 -241 0
194 239 -241 0
78 -241 -242 0
194 -241 -242 0
239 -241 -242 0
-78 241 242 0
-194 241 242 0
-239 241 242 0
-78 -194 -239 242 0
78 194 239 -242 0
-77 -193 243 0
-77 -241 243 0
-193 -241 243 0
77 193 -243 0
77 241 -243 0
193 241 -243 0
77 -243 -244 0
193 -243 -244 0
241 -243 -244 0
-77 243 244 0
-193 243 244 0
-241 243 244 0
-77 -193 -241 244 0
77 193 241 -244 0
-9 -245 0
116 -245 0
222 -245 0
224 -245 0
226 -245 0
-228 -245 0
230 -245 0
-232 -245 0
-234 -245 0
-236 -245 0
-238 -245 0
-240 -245 0
-242 -245 0
-243 -245 0
-244 -245 0
9 -116 -222 -224 -226 228 -230 232 234 236 238 240 242 243 244 245 0
245 0
c main::$tmp::return_value_nondet_char!0@1#1 17 18 19 20 21 22 23 24
c symex::nondet1 9 10 11 12 13 14 15 16
c symex::nondet0 1 2 3 4 5 6 7 8
c main::$tmp::return_value_nondet_char$0!0@1#2 9 10 11 12 13 14 15 16
c __CPROVER_rounding_mode!0#1 FALSE FALSE FALSE FALSE FALSE FALSE FALSE FALSE FALSE FALSE FALSE FALSE FALSE FALSE FALSE FALSE FALSE FALSE FALSE FALSE FALSE FALSE FALSE FALSE FALSE FALSE FALSE FALSE FALSE FALSE FALSE FALSE
c main::$tmp::return_value_nondet_char$0!0@1#1 25 26 27 28 29 30 31 32
c __CPROVER_memory_leak#1 FALSE FALSE FALSE FALSE FALSE FALSE FALSE FALSE FALSE FALSE FALSE FALSE FALSE FALSE FALSE FALSE FALSE FALSE FALSE FALSE FALSE FALSE FALSE FALSE FALSE FALSE FALSE FALSE FALSE FALSE FALSE FALSE FALSE FALSE FALSE FALSE FALSE FALSE FALSE FALSE FALSE FALSE FALSE FALSE FALSE FALSE FALSE FALSE FALSE FALSE FALSE FALSE FALSE FALSE FALSE FALSE FALSE FALSE FALSE FALSE FALSE FALSE FALSE FALSE
c __CPROVER_max_malloc_size#1 FALSE FALSE FALSE FALSE FALSE FALSE FALSE FALSE FALSE FALSE FALSE FALSE FALSE FALSE FALSE FALSE FALSE FALSE FALSE FALSE FALSE FALSE FALSE FALSE FALSE FALSE FALSE FALSE FALSE FALSE FALSE FALSE FALSE FALSE FALSE FALSE FALSE FALSE FALSE FALSE FALSE FALSE FALSE FALSE FALSE FALSE FALSE FALSE FALSE FALSE FALSE FALSE FALSE FALSE FALSE TRUE FALSE FALSE FALSE FALSE FALSE FALSE FALSE FALSE
c __CPROVER_deallocated#1 FALSE FALSE FALSE FALSE FALSE FALSE FALSE FALSE FALSE FALSE FALSE FALSE FALSE FALSE FALSE FALSE FALSE FALSE FALSE FALSE FALSE FALSE FALSE FALSE FALSE FALSE FALSE FALSE FALSE FALSE FALSE FALSE FALSE FALSE FALSE FALSE FALSE FALSE FALSE FALSE FALSE FALSE FALSE FALSE FALSE FALSE FALSE FALSE FALSE FALSE FALSE FALSE FALSE FALSE FALSE FALSE FALSE FALSE FALSE FALSE FALSE FALSE FALSE FALSE
c main::$tmp::return_value_nondet_char!0@1#2 1 2 3 4 5 6 7 8
c __CPROVER_dead_object#1 FALSE FALSE FALSE FALSE FALSE FALSE FALSE FALSE FALSE FALSE FALSE FALSE FALSE FALSE FALSE FALSE FALSE FALSE FALSE FALSE FALSE FALSE FALSE FALSE FALSE FALSE FALSE FALSE FALSE FALSE FALSE FALSE FALSE FALSE FALSE FALSE FALSE FALSE FALSE FALSE FALSE FALSE FALSE FALSE FALSE FALSE FALSE FALSE FALSE FALSE FALSE FALSE FALSE FALSE FALSE FALSE FALSE FALSE FALSE FALSE FALSE FALSE FALSE FALSE
